
Gurobi 9.1.0 (win64) logging started Sat Dec 12 22:34:41 2020

Changed value of parameter LogFile to logs/iteration14
   Prev:   Default: 
Gurobi Optimizer version 9.1.0 build v9.1.0rc0 (win64)
Thread count: 4 physical cores, 8 logical processors, using up to 8 threads
Optimize a model with 136 rows, 786 columns and 3154 nonzeros
Model fingerprint: 0x0606c6ef
Coefficient statistics:
  Matrix range     [1e+00, 1e+00]
  Objective range  [1e+03, 4e+03]
  Bounds range     [0e+00, 0e+00]
  RHS range        [1e+00, 1e+00]
Presolve removed 15 rows and 16 columns
Presolve time: 0.00s
Presolved: 121 rows, 770 columns, 3133 nonzeros

Iteration    Objective       Primal Inf.    Dual Inf.      Time
       0    6.6002750e+04   8.800000e+01   0.000000e+00      0s
     299    9.8433167e+04   0.000000e+00   0.000000e+00      0s

Solved in 299 iterations and 0.01 seconds
Optimal objective  9.843316667e+04

Solutionx[24] 1.000000 
x[26] 0.100000 
x[27] 0.900000 
x[29] 0.300000 
x[37] 0.300000 
x[41] 0.600000 
x[43] 0.800000 
x[45] 0.500000 
x[47] 0.500000 
x[64] 1.000000 
x[67] 1.000000 
x[70] 1.000000 
x[72] 1.000000 
x[76] 1.000000 
x[77] 1.000000 
x[78] 1.000000 
x[101] 1.000000 
x[103] 1.000000 
x[104] 1.000000 
x[107] 1.000000 
x[111] 1.000000 
x[118] 1.000000 
x[121] 1.000000 
x[122] 1.000000 
x[124] 1.000000 
x[125] 1.000000 
x[126] 1.000000 
x[128] 0.600000 
x[129] 0.400000 
x[130] 1.000000 
x[131] 1.000000 
x[132] 1.000000 
x[134] 1.000000 
x[135] 1.000000 
x[179] 0.200000 
x[552] 0.100000 
x[810] 1.000000 
x[821] 1.000000 
x[1375] 0.500000 
x[2903] 0.100000 
x[3092] 0.200000 
x[8298] 0.800000 
x[26579] 0.100000 
x[29392] 1.000000 
x[33291] 0.100000 
x[2649] 0.700000 
x[4047] 0.100000 
x[31580] 0.200000 
x[375] 0.200000 
x[379] 0.500000 
x[879] 0.500000 
x[1078] 0.700000 
x[22176] 1.000000 
x[11407] 1.000000 
x[2833] 0.800000 
x[17560] 0.200000 
x[17723] 0.100000 
x[10481] 0.100000 
x[451] 0.800000 
x[32577] 1.000000 
x[12011] 0.600000 
x[12864] 0.300000 
x[21109] 0.100000 
x[32612] 0.700000 
x[4664] 0.300000 
x[14299] 0.900000 
x[16841] 0.100000 
x[14661] 1.000000 
x[12247] 1.000000 
x[28684] 1.000000 
x[17131] 1.000000 
x[25678] 0.800000 
x[14101] 0.200000 
x[21422] 0.500000 
x[29101] 0.500000 
x[14971] 1.000000 
x[2173] 0.400000 
x[14530] 0.600000 

Gurobi 9.1.0 (win64) logging started Sun Dec 13 15:16:59 2020

Changed value of parameter LogFile to logs/iteration14
   Prev:   Default: 
Gurobi Optimizer version 9.1.0 build v9.1.0rc0 (win64)
Thread count: 4 physical cores, 8 logical processors, using up to 8 threads
Optimize a model with 136 rows, 786 columns and 3154 nonzeros
Model fingerprint: 0x0606c6ef
Coefficient statistics:
  Matrix range     [1e+00, 1e+00]
  Objective range  [1e+03, 4e+03]
  Bounds range     [0e+00, 0e+00]
  RHS range        [1e+00, 1e+00]
Presolve removed 15 rows and 16 columns
Presolve time: 0.00s
Presolved: 121 rows, 770 columns, 3133 nonzeros

Iteration    Objective       Primal Inf.    Dual Inf.      Time
       0    6.6002750e+04   8.800000e+01   0.000000e+00      0s
     299    9.8433167e+04   0.000000e+00   0.000000e+00      0s

Solved in 299 iterations and 0.01 seconds
Optimal objective  9.843316667e+04

Solutionx[24] 1.000000 
x[26] 0.100000 
x[27] 0.900000 
x[29] 0.300000 
x[37] 0.300000 
x[41] 0.600000 
x[43] 0.800000 
x[45] 0.500000 
x[47] 0.500000 
x[64] 1.000000 
x[67] 1.000000 
x[70] 1.000000 
x[72] 1.000000 
x[76] 1.000000 
x[77] 1.000000 
x[78] 1.000000 
x[101] 1.000000 
x[103] 1.000000 
x[104] 1.000000 
x[107] 1.000000 
x[111] 1.000000 
x[118] 1.000000 
x[121] 1.000000 
x[122] 1.000000 
x[124] 1.000000 
x[125] 1.000000 
x[126] 1.000000 
x[128] 0.600000 
x[129] 0.400000 
x[130] 1.000000 
x[131] 1.000000 
x[132] 1.000000 
x[134] 1.000000 
x[135] 1.000000 
x[179] 0.200000 
x[552] 0.100000 
x[810] 1.000000 
x[821] 1.000000 
x[1375] 0.500000 
x[2903] 0.100000 
x[3092] 0.200000 
x[8298] 0.800000 
x[26579] 0.100000 
x[29392] 1.000000 
x[33291] 0.100000 
x[2649] 0.700000 
x[4047] 0.100000 
x[31580] 0.200000 
x[375] 0.200000 
x[379] 0.500000 
x[879] 0.500000 
x[1078] 0.700000 
x[22176] 1.000000 
x[11407] 1.000000 
x[2833] 0.800000 
x[17560] 0.200000 
x[17723] 0.100000 
x[10481] 0.100000 
x[451] 0.800000 
x[32577] 1.000000 
x[12011] 0.600000 
x[12864] 0.300000 
x[21109] 0.100000 
x[32612] 0.700000 
x[4664] 0.300000 
x[14299] 0.900000 
x[16841] 0.100000 
x[14661] 1.000000 
x[12247] 1.000000 
x[28684] 1.000000 
x[17131] 1.000000 
x[25678] 0.800000 
x[14101] 0.200000 
x[21422] 0.500000 
x[29101] 0.500000 
x[14971] 1.000000 
x[2173] 0.400000 
x[14530] 0.600000 

Gurobi 9.1.0 (win64) logging started Sun Dec 13 15:18:45 2020

Changed value of parameter LogFile to logs/iteration14
   Prev:   Default: 
Gurobi Optimizer version 9.1.0 build v9.1.0rc0 (win64)
Thread count: 4 physical cores, 8 logical processors, using up to 8 threads
Optimize a model with 136 rows, 786 columns and 3154 nonzeros
Model fingerprint: 0x0606c6ef
Coefficient statistics:
  Matrix range     [1e+00, 1e+00]
  Objective range  [1e+03, 4e+03]
  Bounds range     [0e+00, 0e+00]
  RHS range        [1e+00, 1e+00]
Presolve removed 15 rows and 16 columns
Presolve time: 0.00s
Presolved: 121 rows, 770 columns, 3133 nonzeros

Iteration    Objective       Primal Inf.    Dual Inf.      Time
       0    6.6002750e+04   8.800000e+01   0.000000e+00      0s
     299    9.8433167e+04   0.000000e+00   0.000000e+00      0s

Solved in 299 iterations and 0.01 seconds
Optimal objective  9.843316667e+04

Solutionx[24] 1.000000 
x[26] 0.100000 
x[27] 0.900000 
x[29] 0.300000 
x[37] 0.300000 
x[41] 0.600000 
x[43] 0.800000 
x[45] 0.500000 
x[47] 0.500000 
x[64] 1.000000 
x[67] 1.000000 
x[70] 1.000000 
x[72] 1.000000 
x[76] 1.000000 
x[77] 1.000000 
x[78] 1.000000 
x[101] 1.000000 
x[103] 1.000000 
x[104] 1.000000 
x[107] 1.000000 
x[111] 1.000000 
x[118] 1.000000 
x[121] 1.000000 
x[122] 1.000000 
x[124] 1.000000 
x[125] 1.000000 
x[126] 1.000000 
x[128] 0.600000 
x[129] 0.400000 
x[130] 1.000000 
x[131] 1.000000 
x[132] 1.000000 
x[134] 1.000000 
x[135] 1.000000 
x[179] 0.200000 
x[552] 0.100000 
x[810] 1.000000 
x[821] 1.000000 
x[1375] 0.500000 
x[2903] 0.100000 
x[3092] 0.200000 
x[8298] 0.800000 
x[26579] 0.100000 
x[29392] 1.000000 
x[33291] 0.100000 
x[2649] 0.700000 
x[4047] 0.100000 
x[31580] 0.200000 
x[375] 0.200000 
x[379] 0.500000 
x[879] 0.500000 
x[1078] 0.700000 
x[22176] 1.000000 
x[11407] 1.000000 
x[2833] 0.800000 
x[17560] 0.200000 
x[17723] 0.100000 
x[10481] 0.100000 
x[451] 0.800000 
x[32577] 1.000000 
x[12011] 0.600000 
x[12864] 0.300000 
x[21109] 0.100000 
x[32612] 0.700000 
x[4664] 0.300000 
x[14299] 0.900000 
x[16841] 0.100000 
x[14661] 1.000000 
x[12247] 1.000000 
x[28684] 1.000000 
x[17131] 1.000000 
x[25678] 0.800000 
x[14101] 0.200000 
x[21422] 0.500000 
x[29101] 0.500000 
x[14971] 1.000000 
x[2173] 0.400000 
x[14530] 0.600000 

Gurobi 9.1.0 (win64) logging started Sun Dec 13 15:22:20 2020

Changed value of parameter LogFile to logs/iteration14
   Prev:   Default: 
Gurobi Optimizer version 9.1.0 build v9.1.0rc0 (win64)
Thread count: 4 physical cores, 8 logical processors, using up to 8 threads
Optimize a model with 136 rows, 786 columns and 3154 nonzeros
Model fingerprint: 0x0606c6ef
Coefficient statistics:
  Matrix range     [1e+00, 1e+00]
  Objective range  [1e+03, 4e+03]
  Bounds range     [0e+00, 0e+00]
  RHS range        [1e+00, 1e+00]
Presolve removed 15 rows and 16 columns
Presolve time: 0.00s
Presolved: 121 rows, 770 columns, 3133 nonzeros

Iteration    Objective       Primal Inf.    Dual Inf.      Time
       0    6.6002750e+04   8.800000e+01   0.000000e+00      0s
     299    9.8433167e+04   0.000000e+00   0.000000e+00      0s

Solved in 299 iterations and 0.01 seconds
Optimal objective  9.843316667e+04

Solutionx[24] 1.000000 
x[26] 0.100000 
x[27] 0.900000 
x[29] 0.300000 
x[37] 0.300000 
x[41] 0.600000 
x[43] 0.800000 
x[45] 0.500000 
x[47] 0.500000 
x[64] 1.000000 
x[67] 1.000000 
x[70] 1.000000 
x[72] 1.000000 
x[76] 1.000000 
x[77] 1.000000 
x[78] 1.000000 
x[101] 1.000000 
x[103] 1.000000 
x[104] 1.000000 
x[107] 1.000000 
x[111] 1.000000 
x[118] 1.000000 
x[121] 1.000000 
x[122] 1.000000 
x[124] 1.000000 
x[125] 1.000000 
x[126] 1.000000 
x[128] 0.600000 
x[129] 0.400000 
x[130] 1.000000 
x[131] 1.000000 
x[132] 1.000000 
x[134] 1.000000 
x[135] 1.000000 
x[179] 0.200000 
x[552] 0.100000 
x[810] 1.000000 
x[821] 1.000000 
x[1375] 0.500000 
x[2903] 0.100000 
x[3092] 0.200000 
x[8298] 0.800000 
x[26579] 0.100000 
x[29392] 1.000000 
x[33291] 0.100000 
x[2649] 0.700000 
x[4047] 0.100000 
x[31580] 0.200000 
x[375] 0.200000 
x[379] 0.500000 
x[879] 0.500000 
x[1078] 0.700000 
x[22176] 1.000000 
x[11407] 1.000000 
x[2833] 0.800000 
x[17560] 0.200000 
x[17723] 0.100000 
x[10481] 0.100000 
x[451] 0.800000 
x[32577] 1.000000 
x[12011] 0.600000 
x[12864] 0.300000 
x[21109] 0.100000 
x[32612] 0.700000 
x[4664] 0.300000 
x[14299] 0.900000 
x[16841] 0.100000 
x[14661] 1.000000 
x[12247] 1.000000 
x[28684] 1.000000 
x[17131] 1.000000 
x[25678] 0.800000 
x[14101] 0.200000 
x[21422] 0.500000 
x[29101] 0.500000 
x[14971] 1.000000 
x[2173] 0.400000 
x[14530] 0.600000 

Gurobi 9.1.0 (win64) logging started Sun Dec 13 15:26:24 2020

Changed value of parameter LogFile to logs/iteration14
   Prev:   Default: 
Gurobi Optimizer version 9.1.0 build v9.1.0rc0 (win64)
Thread count: 4 physical cores, 8 logical processors, using up to 8 threads
Optimize a model with 136 rows, 786 columns and 3154 nonzeros
Model fingerprint: 0x0606c6ef
Coefficient statistics:
  Matrix range     [1e+00, 1e+00]
  Objective range  [1e+03, 4e+03]
  Bounds range     [0e+00, 0e+00]
  RHS range        [1e+00, 1e+00]
Presolve removed 15 rows and 16 columns
Presolve time: 0.00s
Presolved: 121 rows, 770 columns, 3133 nonzeros

Iteration    Objective       Primal Inf.    Dual Inf.      Time
       0    6.6002750e+04   8.800000e+01   0.000000e+00      0s
     299    9.8433167e+04   0.000000e+00   0.000000e+00      0s

Solved in 299 iterations and 0.01 seconds
Optimal objective  9.843316667e+04

Solutionx[24] 1.000000 
x[26] 0.100000 
x[27] 0.900000 
x[29] 0.300000 
x[37] 0.300000 
x[41] 0.600000 
x[43] 0.800000 
x[45] 0.500000 
x[47] 0.500000 
x[64] 1.000000 
x[67] 1.000000 
x[70] 1.000000 
x[72] 1.000000 
x[76] 1.000000 
x[77] 1.000000 
x[78] 1.000000 
x[101] 1.000000 
x[103] 1.000000 
x[104] 1.000000 
x[107] 1.000000 
x[111] 1.000000 
x[118] 1.000000 
x[121] 1.000000 
x[122] 1.000000 
x[124] 1.000000 
x[125] 1.000000 
x[126] 1.000000 
x[128] 0.600000 
x[129] 0.400000 
x[130] 1.000000 
x[131] 1.000000 
x[132] 1.000000 
x[134] 1.000000 
x[135] 1.000000 
x[179] 0.200000 
x[552] 0.100000 
x[810] 1.000000 
x[821] 1.000000 
x[1375] 0.500000 
x[2903] 0.100000 
x[3092] 0.200000 
x[8298] 0.800000 
x[26579] 0.100000 
x[29392] 1.000000 
x[33291] 0.100000 
x[2649] 0.700000 
x[4047] 0.100000 
x[31580] 0.200000 
x[375] 0.200000 
x[379] 0.500000 
x[879] 0.500000 
x[1078] 0.700000 
x[22176] 1.000000 
x[11407] 1.000000 
x[2833] 0.800000 
x[17560] 0.200000 
x[17723] 0.100000 
x[10481] 0.100000 
x[451] 0.800000 
x[32577] 1.000000 
x[12011] 0.600000 
x[12864] 0.300000 
x[21109] 0.100000 
x[32612] 0.700000 
x[4664] 0.300000 
x[14299] 0.900000 
x[16841] 0.100000 
x[14661] 1.000000 
x[12247] 1.000000 
x[28684] 1.000000 
x[17131] 1.000000 
x[25678] 0.800000 
x[14101] 0.200000 
x[21422] 0.500000 
x[29101] 0.500000 
x[14971] 1.000000 
x[2173] 0.400000 
x[14530] 0.600000 

Gurobi 9.1.0 (win64) logging started Sun Dec 13 13:25:00 2020

Changed value of parameter LogFile to logs/iteration14
   Prev:   Default: 
Gurobi Optimizer version 9.1.0 build v9.1.0rc0 (win64)
Thread count: 4 physical cores, 8 logical processors, using up to 8 threads
Optimize a model with 136 rows, 786 columns and 3154 nonzeros
Model fingerprint: 0x0606c6ef
Coefficient statistics:
  Matrix range     [1e+00, 1e+00]
  Objective range  [1e+03, 4e+03]
  Bounds range     [0e+00, 0e+00]
  RHS range        [1e+00, 1e+00]
Presolve removed 15 rows and 16 columns
Presolve time: 0.00s
Presolved: 121 rows, 770 columns, 3133 nonzeros

Iteration    Objective       Primal Inf.    Dual Inf.      Time
       0    6.6002750e+04   8.800000e+01   0.000000e+00      0s
     299    9.8433167e+04   0.000000e+00   0.000000e+00      0s

Solved in 299 iterations and 0.01 seconds
Optimal objective  9.843316667e+04

Solutionx[24] 1.000000 
x[26] 0.100000 
x[27] 0.900000 
x[29] 0.300000 
x[37] 0.300000 
x[41] 0.600000 
x[43] 0.800000 
x[45] 0.500000 
x[47] 0.500000 
x[64] 1.000000 
x[67] 1.000000 
x[70] 1.000000 
x[72] 1.000000 
x[76] 1.000000 
x[77] 1.000000 
x[78] 1.000000 
x[101] 1.000000 
x[103] 1.000000 
x[104] 1.000000 
x[107] 1.000000 
x[111] 1.000000 
x[118] 1.000000 
x[121] 1.000000 
x[122] 1.000000 
x[124] 1.000000 
x[125] 1.000000 
x[126] 1.000000 
x[128] 0.600000 
x[129] 0.400000 
x[130] 1.000000 
x[131] 1.000000 
x[132] 1.000000 
x[134] 1.000000 
x[135] 1.000000 
x[179] 0.200000 
x[552] 0.100000 
x[810] 1.000000 
x[821] 1.000000 
x[1375] 0.500000 
x[2903] 0.100000 
x[3092] 0.200000 
x[8298] 0.800000 
x[26579] 0.100000 
x[29392] 1.000000 
x[33291] 0.100000 
x[2649] 0.700000 
x[4047] 0.100000 
x[31580] 0.200000 
x[375] 0.200000 
x[379] 0.500000 
x[879] 0.500000 
x[1078] 0.700000 
x[22176] 1.000000 
x[11407] 1.000000 
x[2833] 0.800000 
x[17560] 0.200000 
x[17723] 0.100000 
x[10481] 0.100000 
x[451] 0.800000 
x[32577] 1.000000 
x[12011] 0.600000 
x[12864] 0.300000 
x[21109] 0.100000 
x[32612] 0.700000 
x[4664] 0.300000 
x[14299] 0.900000 
x[16841] 0.100000 
x[14661] 1.000000 
x[12247] 1.000000 
x[28684] 1.000000 
x[17131] 1.000000 
x[25678] 0.800000 
x[14101] 0.200000 
x[21422] 0.500000 
x[29101] 0.500000 
x[14971] 1.000000 
x[2173] 0.400000 
x[14530] 0.600000 
